200
150
100
98
98
97
97
97
97
97
96
96
96
96
94
94
94
93
93
92
91
91
90
90
90
89
89
89
88
87
87
86
86
85
85
83
83
83
83
82
82
82
81
80
79
79
78
78
78
78
77
77
77
77
77
77
76
75
74
74
73
72
72
72
71
70
70
69
69
69
67
67
66
66
66
66
66
66
66
66
64
63
62
62
62
61
61
61
60
60
60
59
59
59
58
58
57
56
56
56
55
54
54
54
54
54
54
54
53
53
53
53
53
51
51
51
50
50
50
50
49
49
48
47
46
46
45
45
45
44
44
44
43
43
42
41
41
40
40
40
39
39
39
38
38
37
37
37
36
36
36
36
36
34
34
34
34
33
30
29
29
28
28
27
27
27
25
25
25
25
24
24
23
22
22
22
22
19
18
18
16
16
15
14
13
13
13
11
11
10
10
8
7
5
5
5
4
4
2
1
1
1
